




Route 1 : 90 66 64 83 65 82 99 52 57 86 74 24 22 20 49 19 18 48 21 23 25 77 58 75 97 59 87 9 10 11 13 15 16 17 47 14 12 53 98 69
Route 2 : 68 55 88 60 78 73 79 7 6 8 46 4 45 5 3 1 2 100 70 61 41 42 44 43 40 36 35 37 38 39 72 54 81
Route 3 : 96 71 93 94 67 62 50 34 31 29 27 26 28 30 32 33 89 76 51 63 85 84 56 95 92 91 80


